
Gurobi 12.0.2 (win64) logging started Wed Jun  4 16:56:17 2025

Set parameter LogFile to value "C:\Ioana\_uni\honours\slp\algorithm\Main_files\results\others\fatty_acids\Task_002_Sample004_irr_gurobi.log"
Gurobi Optimizer version 12.0.2 build v12.0.2rc0 (win64 - Windows 11.0 (26100.2))

CPU model: Intel(R) Core(TM) Ultra 5 125H, instruction set [SSE2|AVX|AVX2]
Thread count: 14 physical cores, 18 logical processors, using up to 18 threads

Non-default parameters:
TimeLimit  2200

Optimize a model with 47226 rows, 34495 columns and 146682 nonzeros
Model fingerprint: 0xf6391587
Variable types: 17250 continuous, 17245 integer (17245 binary)
Coefficient statistics:
  Matrix range     [1e-04, 8e+04]
  Objective range  [4e-05, 1e+01]
  Bounds range     [1e+00, 1e+03]
  RHS range        [1e+00, 1e+00]
Presolve removed 30775 rows and 21540 columns
Presolve time: 0.51s
Presolved: 16451 rows, 12955 columns, 54678 nonzeros
Variable types: 6409 continuous, 6546 integer (6546 binary)

Root relaxation: objective 7.809252e-05, 39 iterations, 0.02 seconds (0.01 work units)

    Nodes    |    Current Node    |     Objective Bounds      |     Work
 Expl Unexpl |  Obj  Depth IntInf | Incumbent    BestBd   Gap | It/Node Time

     0     0    0.00008    0    2          -    0.00008      -     -    0s
H    0     0                       0.0780925    0.00008   100%     -    0s

Explored 1 nodes (39 simplex iterations) in 0.74 seconds (0.48 work units)
Thread count was 18 (of 18 available processors)

Solution count 1: 0.0780925 

Optimal solution found (tolerance 1.00e-04)
Best objective 7.809251559252e-02, best bound 7.809251559252e-02, gap 0.0000%
